! NanoVNA-App
! Date: 2026-06-02 21:23:38
! Start: 800MHz Stop: 1.5GHz Points: 101
! S-Parameter data: F S11 S21 S12 S22
# Hz S RI R 50
!     Frequency           S11_Real           S11_Imag           S21_Real           S21_Imag           S12_Real           S12_Imag           S22_Real           S22_Imag
      800000000   -1.020477176e+00    3.065639138e-01    1.031327294e-03    6.538480520e-04    0.000000000e+00    0.000000000e+00    0.000000000e+00    0.000000000e+00
      807000000   -1.057061672e+00    1.628301889e-01    9.852838702e-04    8.179719443e-04    0.000000000e+00    0.000000000e+00    0.000000000e+00    0.000000000e+00
      814000000   -1.070174217e+00    1.621594653e-02    6.760442629e-04    1.077626017e-03    0.000000000e+00    0.000000000e+00    0.000000000e+00    0.000000000e+00
      821000000   -1.062502503e+00   -1.302807778e-01    6.141415215e-04    1.069979393e-03    0.000000000e+00    0.000000000e+00    0.000000000e+00    0.000000000e+00
      828000000   -1.036766529e+00   -2.729554772e-01    5.130745121e-04    1.113572274e-03    0.000000000e+00    0.000000000e+00    0.000000000e+00    0.000000000e+00
      835000000   -9.884544015e-01   -4.102971256e-01    3.110967227e-04    1.538092270e-03    0.000000000e+00    0.000000000e+00    0.000000000e+00    0.000000000e+00
      842000000   -9.234809279e-01   -5.373914838e-01    2.363114763e-04    1.205994398e-03    0.000000000e+00    0.000000000e+00    0.000000000e+00    0.000000000e+00
      849000000   -8.424729705e-01   -6.552867889e-01   -2.836003841e-05    1.524568885e-03    0.000000000e+00    0.000000000e+00    0.000000000e+00    0.000000000e+00
      856000000   -7.461996078e-01   -7.566440105e-01   -1.941740629e-04    1.422423404e-03    0.000000000e+00    0.000000000e+00    0.000000000e+00    0.000000000e+00
      863000000   -6.396952868e-01   -8.453527093e-01   -5.144411116e-04    1.423956244e-03    0.000000000e+00    0.000000000e+00    0.000000000e+00    0.000000000e+00
      870000000   -5.231949687e-01   -9.187751412e-01   -5.978387780e-04    1.507741748e-03    0.000000000e+00    0.000000000e+00    0.000000000e+00    0.000000000e+00
      877000000   -4.003188014e-01   -9.737287760e-01   -8.916977094e-04    1.324846642e-03    0.000000000e+00    0.000000000e+00    0.000000000e+00    0.000000000e+00
      884000000   -2.746034563e-01   -1.014091372e+00   -1.131286961e-03    1.472168486e-03    0.000000000e+00    0.000000000e+00    0.000000000e+00    0.000000000e+00
      891000000   -1.443393379e-01   -1.037508607e+00   -1.326363883e-03    1.184667693e-03    0.000000000e+00    0.000000000e+00    0.000000000e+00    0.000000000e+00
      898000000   -1.462819427e-02   -1.044500232e+00   -1.513363793e-03    1.009049709e-03    0.000000000e+00    0.000000000e+00    0.000000000e+00    0.000000000e+00
      905000000    1.729427129e-01   -1.132231593e+00   -3.107339144e-03    1.189991366e-03    0.000000000e+00    0.000000000e+00    0.000000000e+00    0.000000000e+00
      912000000    3.195915520e-01   -1.112551212e+00   -3.550329246e-03    1.228071400e-03    0.000000000e+00    0.000000000e+00    0.000000000e+00    0.000000000e+00
      919000000    4.653953910e-01   -1.070807338e+00   -3.112743841e-03    6.721994723e-04    0.000000000e+00    0.000000000e+00    0.000000000e+00    0.000000000e+00
      926000000    6.079601049e-01   -1.011508942e+00   -3.264951054e-03   -3.731775796e-04    0.000000000e+00    0.000000000e+00    0.000000000e+00    0.000000000e+00
      933000000    7.466648221e-01   -9.352143407e-01   -3.744734684e-03    4.840886686e-05    0.000000000e+00    0.000000000e+00    0.000000000e+00    0.000000000e+00
      940000000    8.741278648e-01   -8.382456899e-01   -3.861473640e-03   -6.470020162e-04    0.000000000e+00    0.000000000e+00    0.000000000e+00    0.000000000e+00
      947000000    9.919576645e-01   -7.222478390e-01   -3.272361355e-03   -1.325151185e-03    0.000000000e+00    0.000000000e+00    0.000000000e+00    0.000000000e+00
      954000000    1.098349214e+00   -5.871231556e-01   -3.156311577e-03   -2.050633542e-03    0.000000000e+00    0.000000000e+00    0.000000000e+00    0.000000000e+00
      961000000    1.182374954e+00   -4.301595092e-01   -2.850967459e-03   -2.230910351e-03    0.000000000e+00    0.000000000e+00    0.000000000e+00    0.000000000e+00
      968000000    1.243518472e+00   -2.577366829e-01   -2.954058116e-03   -2.510703169e-03    0.000000000e+00    0.000000000e+00    0.000000000e+00    0.000000000e+00
      975000000    1.184242010e+00    8.883124590e-02   -3.238016739e-03   -2.701299731e-03    0.000000000e+00    0.000000000e+00    0.000000000e+00    0.000000000e+00
      982000000    1.281548381e+00    1.179231480e-01   -2.292582067e-03   -4.011796322e-03    0.000000000e+00    0.000000000e+00    0.000000000e+00    0.000000000e+00
      989000000    1.247341990e+00    3.035046458e-01   -1.783720916e-03   -4.260074347e-03    0.000000000e+00    0.000000000e+00    0.000000000e+00    0.000000000e+00
      996000000    1.187694430e+00    4.831293523e-01   -1.913431915e-03   -4.778207745e-03    0.000000000e+00    0.000000000e+00    0.000000000e+00    0.000000000e+00
     1003000000    1.100182891e+00    6.452438831e-01   -1.103996299e-03   -4.867840093e-03    0.000000000e+00    0.000000000e+00    0.000000000e+00    0.000000000e+00
     1010000000    9.881287813e-01    7.959459424e-01   -7.051500725e-04   -4.893376026e-03    0.000000000e+00    0.000000000e+00    0.000000000e+00    0.000000000e+00
     1017000000    8.555508852e-01    9.194483757e-01    3.992653219e-04   -4.234984517e-03    0.000000000e+00    0.000000000e+00    0.000000000e+00    0.000000000e+00
     1024000000    7.101416588e-01    1.021795154e+00    6.381224375e-05   -4.489765503e-03    0.000000000e+00    0.000000000e+00    0.000000000e+00    0.000000000e+00
     1031000000    5.563018322e-01    1.098373175e+00    1.719909022e-03   -4.557698499e-03    0.000000000e+00    0.000000000e+00    0.000000000e+00    0.000000000e+00
     1038000000    4.005352855e-01    1.154873013e+00    2.352837706e-03   -4.930119030e-03    0.000000000e+00    0.000000000e+00    0.000000000e+00    0.000000000e+00
     1045000000    2.387055904e-01    1.190542221e+00    2.809384372e-03   -3.660694696e-03    0.000000000e+00    0.000000000e+00    0.000000000e+00    0.000000000e+00
     1052000000    8.003982157e-02    1.208715439e+00    2.956590150e-03   -3.948654979e-03    0.000000000e+00    0.000000000e+00    0.000000000e+00    0.000000000e+00
     1059000000   -7.531946152e-02    1.200728416e+00    4.049349111e-03   -2.957150107e-03    0.000000000e+00    0.000000000e+00    0.000000000e+00    0.000000000e+00
     1066000000   -2.324722856e-01    1.177978396e+00    3.671410028e-03   -3.679196350e-03    0.000000000e+00    0.000000000e+00    0.000000000e+00    0.000000000e+00
     1073000000   -3.798163533e-01    1.142778754e+00    3.255115356e-03   -1.720971661e-03    0.000000000e+00    0.000000000e+00    0.000000000e+00    0.000000000e+00
     1080000000   -5.199235082e-01    1.093157768e+00    4.054711200e-03   -8.371702279e-04    0.000000000e+00    0.000000000e+00    0.000000000e+00    0.000000000e+00
     1087000000   -6.587329507e-01    1.023889780e+00    4.247843288e-03   -1.819410245e-03    0.000000000e+00    0.000000000e+00    0.000000000e+00    0.000000000e+00
     1094000000   -7.867427468e-01    9.371952415e-01    4.403115716e-03   -6.892018137e-04    0.000000000e+00    0.000000000e+00    0.000000000e+00    0.000000000e+00
     1101000000   -9.066782594e-01    8.314098716e-01    3.236423479e-03    4.428713582e-04    0.000000000e+00    0.000000000e+00    0.000000000e+00    0.000000000e+00
     1108000000   -1.014826775e+00    7.091533542e-01    3.020983189e-03    1.475673169e-03    0.000000000e+00    0.000000000e+00    0.000000000e+00    0.000000000e+00
     1115000000   -1.112855911e+00    5.730269551e-01    2.622709842e-03    2.297316212e-03    0.000000000e+00    0.000000000e+00    0.000000000e+00    0.000000000e+00
     1122000000   -1.189325571e+00    4.105284214e-01    1.934442436e-03    1.422283007e-03    0.000000000e+00    0.000000000e+00    0.000000000e+00    0.000000000e+00
     1129000000   -1.238726497e+00    2.298157811e-01    2.166026970e-03    3.000167897e-03    0.000000000e+00    0.000000000e+00    0.000000000e+00    0.000000000e+00
     1136000000   -1.270676136e+00    4.528243095e-02    6.485061022e-04    2.694574185e-03    0.000000000e+00    0.000000000e+00    0.000000000e+00    0.000000000e+00
     1143000000   -1.273463130e+00   -1.445128024e-01    4.594980273e-04    4.272167571e-03    0.000000000e+00    0.000000000e+00    0.000000000e+00    0.000000000e+00
     1150000000   -1.243613601e+00   -3.403276801e-01    3.699108493e-05    4.919033032e-03    0.000000000e+00    0.000000000e+00    0.000000000e+00    0.000000000e+00
     1157000000   -1.151144862e+00   -5.291003585e-01   -1.247336389e-03    4.183080047e-03    0.000000000e+00    0.000000000e+00    0.000000000e+00    0.000000000e+00
     1164000000   -1.079265118e+00   -6.963829994e-01   -1.919877832e-03    5.663937889e-03    0.000000000e+00    0.000000000e+00    0.000000000e+00    0.000000000e+00
     1171000000   -9.703859091e-01   -8.362690806e-01   -3.674845211e-03    4.903188907e-03    0.000000000e+00    0.000000000e+00    0.000000000e+00    0.000000000e+00
     1178000000   -8.396560550e-01   -9.617970586e-01   -3.828039393e-03    5.465858150e-03    0.000000000e+00    0.000000000e+00    0.000000000e+00    0.000000000e+00
     1185000000   -6.947260499e-01   -1.051417589e+00   -5.815104116e-03    4.768312909e-03    0.000000000e+00    0.000000000e+00    0.000000000e+00    0.000000000e+00
     1192000000   -5.579928160e-01   -1.121306539e+00   -5.091244355e-03    3.857553471e-03    0.000000000e+00    0.000000000e+00    0.000000000e+00    0.000000000e+00
     1199000000   -4.141650200e-01   -1.161127806e+00   -5.535510834e-03    3.475149628e-03    0.000000000e+00    0.000000000e+00    0.000000000e+00    0.000000000e+00
     1206000000   -2.619120181e-01   -1.183327556e+00   -5.933365785e-03    2.157739829e-03    0.000000000e+00    0.000000000e+00    0.000000000e+00    0.000000000e+00
     1213000000   -1.294890940e-01   -1.194703817e+00   -6.041264161e-03    1.332894433e-03    0.000000000e+00    0.000000000e+00    0.000000000e+00    0.000000000e+00
     1220000000    7.871267386e-03   -1.190989017e+00   -7.661690935e-03    1.002302626e-03    0.000000000e+00    0.000000000e+00    0.000000000e+00    0.000000000e+00
     1227000000    1.436980069e-01   -1.179199457e+00   -6.689611822e-03   -4.111201270e-04    0.000000000e+00    0.000000000e+00    0.000000000e+00    0.000000000e+00
     1234000000    2.747810781e-01   -1.153304219e+00   -7.857477292e-03   -2.034399658e-03    0.000000000e+00    0.000000000e+00    0.000000000e+00    0.000000000e+00
     1241000000    4.041013122e-01   -1.112548709e+00   -7.127783261e-03   -3.070804756e-03    0.000000000e+00    0.000000000e+00    0.000000000e+00    0.000000000e+00
     1248000000    5.268276930e-01   -1.057702899e+00   -7.253000513e-03   -4.088859539e-03    0.000000000e+00    0.000000000e+00    0.000000000e+00    0.000000000e+00
     1255000000    6.459988952e-01   -9.878149629e-01   -5.465548951e-03   -6.126498803e-03    0.000000000e+00    0.000000000e+00    0.000000000e+00    0.000000000e+00
     1262000000    7.626694441e-01   -8.952463865e-01   -4.920054227e-03   -7.275296375e-03    0.000000000e+00    0.000000000e+00    0.000000000e+00    0.000000000e+00
     1269000000    8.716334701e-01   -7.874317169e-01   -6.013186183e-03   -5.382603966e-03    0.000000000e+00    0.000000000e+00    0.000000000e+00    0.000000000e+00
     1276000000    9.624807239e-01   -6.691437960e-01   -4.357703030e-03   -7.777242921e-03    0.000000000e+00    0.000000000e+00    0.000000000e+00    0.000000000e+00
     1283000000    1.025056362e+00   -5.319348574e-01   -4.745730199e-03   -7.199214306e-03    0.000000000e+00    0.000000000e+00    0.000000000e+00    0.000000000e+00
     1290000000    1.062960029e+00   -3.929358125e-01   -1.223289757e-03   -8.165217005e-03    0.000000000e+00    0.000000000e+00    0.000000000e+00    0.000000000e+00
     1297000000    1.083153725e+00   -2.511891425e-01   -2.480993280e-04   -7.678980939e-03    0.000000000e+00    0.000000000e+00    0.000000000e+00    0.000000000e+00
     1304000000    1.077455640e+00   -1.120393947e-01    1.273545437e-03   -8.231712505e-03    0.000000000e+00    0.000000000e+00    0.000000000e+00    0.000000000e+00
     1311000000    1.045747161e+00    1.650328049e-03    1.577172894e-03   -6.801004987e-03    0.000000000e+00    0.000000000e+00    0.000000000e+00    0.000000000e+00
     1318000000    1.018605471e+00    1.164670065e-01    2.623577137e-03   -6.867284421e-03    0.000000000e+00    0.000000000e+00    0.000000000e+00    0.000000000e+00
     1325000000    9.729676843e-01    2.134412676e-01    2.229975071e-03   -8.584764786e-03    0.000000000e+00    0.000000000e+00    0.000000000e+00    0.000000000e+00
     1332000000    9.233564138e-01    2.986629009e-01    4.330821801e-03   -4.630713258e-03    0.000000000e+00    0.000000000e+00    0.000000000e+00    0.000000000e+00
     1339000000    8.816268444e-01    3.776010275e-01    3.779085120e-03   -6.969674490e-03    0.000000000e+00    0.000000000e+00    0.000000000e+00    0.000000000e+00
     1346000000    8.280739188e-01    4.398776293e-01    5.190907978e-03   -6.054098252e-03    0.000000000e+00    0.000000000e+00    0.000000000e+00    0.000000000e+00
     1353000000    7.745481730e-01    5.087233186e-01    5.853258073e-03   -3.889873158e-03    0.000000000e+00    0.000000000e+00    0.000000000e+00    0.000000000e+00
     1360000000    7.220469713e-01    5.610960126e-01    7.381143514e-03   -3.747843439e-03    0.000000000e+00    0.000000000e+00    0.000000000e+00    0.000000000e+00
     1367000000    6.720639467e-01    6.285114884e-01    6.397759542e-03   -4.075067118e-03    0.000000000e+00    0.000000000e+00    0.000000000e+00    0.000000000e+00
     1374000000    6.160954237e-01    6.858569384e-01    8.812608197e-03   -1.492068870e-03    0.000000000e+00    0.000000000e+00    0.000000000e+00    0.000000000e+00
     1381000000    5.624122620e-01    7.371053696e-01    8.494934998e-03   -2.423061756e-03    0.000000000e+00    0.000000000e+00    0.000000000e+00    0.000000000e+00
     1388000000    4.989025295e-01    8.044745922e-01    7.568688132e-03   -6.681542145e-04    0.000000000e+00    0.000000000e+00    0.000000000e+00    0.000000000e+00
     1395000000    4.397201240e-01    8.701971769e-01    9.496900253e-03    8.761372883e-04    0.000000000e+00    0.000000000e+00    0.000000000e+00    0.000000000e+00
     1402000000    3.769550323e-01    9.365562797e-01    5.286426283e-03    2.626528963e-03    0.000000000e+00    0.000000000e+00    0.000000000e+00    0.000000000e+00
     1409000000    2.733591497e-01    1.008780003e+00    8.166491985e-03    2.526724944e-03    0.000000000e+00    0.000000000e+00    0.000000000e+00    0.000000000e+00
     1416000000    1.688558161e-01    1.069218159e+00    9.159634821e-03    2.286602277e-03    0.000000000e+00    0.000000000e+00    0.000000000e+00    0.000000000e+00
     1423000000    5.978863314e-02    1.137287855e+00    7.355858106e-03    4.988442641e-03    0.000000000e+00    0.000000000e+00    0.000000000e+00    0.000000000e+00
     1430000000   -1.157552153e-01    1.284313202e+00    6.594375242e-03    5.803415552e-03    0.000000000e+00    0.000000000e+00    0.000000000e+00    0.000000000e+00
     1437000000   -2.207262814e-01    1.249472737e+00    5.745481700e-03    8.067211136e-03    0.000000000e+00    0.000000000e+00    0.000000000e+00    0.000000000e+00
     1444000000   -3.506321013e-01    1.276695967e+00    4.725696053e-03    8.245518431e-03    0.000000000e+00    0.000000000e+00    0.000000000e+00    0.000000000e+00
     1451000000   -5.199955106e-01    1.297412992e+00    2.433193382e-03    7.019946352e-03    0.000000000e+00    0.000000000e+00    0.000000000e+00    0.000000000e+00
     1458000000   -7.144318819e-01    1.389174461e+00    5.011940375e-03    1.090805978e-02    0.000000000e+00    0.000000000e+00    0.000000000e+00    0.000000000e+00
     1465000000   -1.004770398e+00    1.538203955e+00    2.154423157e-03    1.039572619e-02    0.000000000e+00    0.000000000e+00    0.000000000e+00    0.000000000e+00
     1472000000   -1.493186951e+00    1.727851033e+00    5.822251551e-04    1.216267888e-02    0.000000000e+00    0.000000000e+00    0.000000000e+00    0.000000000e+00
     1479000000   -2.635992527e+00    1.746060014e+00    1.387116499e-04    1.120240428e-02    0.000000000e+00    0.000000000e+00    0.000000000e+00    0.000000000e+00
     1486000000   -4.329468727e+00   -5.970519036e-02   -2.873481950e-03    1.447823457e-02    0.000000000e+00    0.000000000e+00    0.000000000e+00    0.000000000e+00
     1493000000   -2.809070110e+00   -2.278468847e+00   -3.951354884e-03    1.510251779e-02    0.000000000e+00    0.000000000e+00    0.000000000e+00    0.000000000e+00
     1500000000   -1.325243115e+00   -2.139770746e+00   -4.965004977e-03    2.124830708e-02    0.000000000e+00    0.000000000e+00    0.000000000e+00    0.000000000e+00
